10  5
 3  5  0  8  2  8  1  8  4 14   0 169  10
 0  6  3 11  2  8  1 10  4 10   0 169  10
 0  8  1 10  2 13  3  3  4 16   0 169   5
 1  4  0  9  2  9  3  9  4 14   0 169  10
 0  6  3  5  2 15  1  9  4 11   0 169   5
 0  8  1 10  2 12  3 11  4 16   0 169   5
 1 11  0 10  2 12  3  5  4 15   0 169  10
 1  4  0  8  2 16  3 11  4 15   0 169  10
 1  4  0 10  2 16  3 11  4  9   0 169   5
 0  9  1  8  2 13  3  7  4 13   0 169   5
